NAME : N40ft407.dat.8312.tour
COMMENT : Length = 8312
COMMENT : Found by LKH [Keld Helsgaun] Tue May  2 05:19:42 2017
TYPE : TOUR
DIMENSION : 40
TOUR_SECTION
1
35
31
12
24
29
22
30
6
32
8
39
37
13
5
28
16
18
33
23
11
9
19
20
40
34
17
14
15
3
4
10
25
36
26
21
38
27
7
2
-1
EOF
